55167
22 10 117
10 53 819
53 34 396
34 47 702
47 54 491
54 26 967
26 55 397
55 28 487
28 6 404
6 3 385
3 43 1096
43 13 790
13 41 686
41 5 714
5 37 467
37 51 590
51 40 1042
40 7 1176
7 20 846
20 50 763
50 24 868
24 35 296
35 38 988
38 8 368
8 44 383
44 32 676
32 19 1127
19 49 934
49 48 761
48 17 415
17 23 619
23 21 176
21 29 516
29 46 1012
46 36 402
36 39 503
39 15 485
15 52 631
52 45 722
45 11 436
11 25 545
25 31 299
31 27 4460
27 1 4123
1 33 7621
33 42 4807
42 18 2089
18 4 606
4 30 380
30 12 1291
12 9 723
9 14 471
14 2 433
2 16 929
16 22 737
